NAME : portcgen-30-22
COMMENT : portcgen N=30, seed=22
TYPE : TSP
DIMENSION : 30
EDGE_WEIGHT_TYPE : EUC_2D
NODE_COORD_SECTION
1 16512 -140303
2 -134002 -20011
3 62624 318495
4 -39812 -64081
5 10003 293644
6 -127557 41787
7 118664 -147695
8 108436 -94173
9 -96888 376813
10 291098 14772
11 -137613 300394
12 -54919 -196847
13 297067 149216
14 -195135 -98355
15 116565 106132
16 106839 27162
17 178049 93461
18 205605 55795
19 14877 120479
20 31197 -255785
21 -194118 -27156
22 -239362 -355436
23 -6280 81681
24 99524 -19504
25 -66843 79180
26 -228324 186164
27 2048 -276752
28 194601 -195051
29 -247842 61816
30 -421156 -24862
